c   #vars: 79   #clauses: 353   #literals: 986
c 
p cnf 79 353
-1 -2 0
-15 27 62 63 0
-4 -5 0
-7 -8 0
-9 -10 0
-11 -12 0
-13 -14 0
36 37 57 58 0
-15 -16 0
-17 -18 0
-19 -20 0
-21 -22 0
9 10 69 70 0
-23 -24 0
-25 -26 0
1 2 30 31 0
30 31 55 56 0
3 62 63 -64 0
-28 -29 0
-30 -31 0
-32 -33 0
-34 -35 0
-36 -37 0
-38 -39 0
21 22 52 -67 0
-42 -43 0
-44 -45 0
-46 -47 0
-48 -49 0
-50 -51 0
32 33 -46 61 0
-53 -54 0
-55 -56 0
-57 -58 0
-59 -60 0
-5 28 29 64 0
-62 -63 0
-16 40 53 54 0
-16 17 18 40 0
-65 -66 0
7 8 78 79 0
38 39 78 79 0
3 -29 -38 64 0
-67 -68 0
19 20 67 68 0
-69 -70 0
-71 -72 0
6 55 56 -65 0
9 10 74 75 0
-74 -75 0
1 2 76 77 0
-76 -77 0
-78 -79 0
-18 40 59 60 0
-1 -30 0
-2 -31 0
19 20 59 60 0
-1 -36 0
-2 -37 0
25 26 69 70 0
-1 -42 0
-2 -43 0
30 31 57 58 0
-1 -53 0
-2 -54 0
30 31 78 79 0
-1 -76 0
-2 -77 0
19 20 52 -67 0
-11 27 63 0
-3 -39 0
6 48 49 -65 0
12 27 -62 0
-3 -63 0
11 12 30 31 0
11 12 -15 27 0
15 16 40 -60 0
-4 -28 0
-5 -29 0
-4 -48 0
-5 -49 0
-4 -55 0
-5 -56 0
6 48 49 -55 0
-4 -64 0
15 16 40 -54 0
11 12 50 51 0
-4 -69 0
-5 -70 0
13 14 41 -71 0
7 8 76 77 0
-6 -49 0
-6 -56 0
6 48 49 -78 0
-6 -66 0
19 20 55 56 0
-6 -79 0
15 16 44 45 0
-7 -42 0
-8 -43 0
-7 -53 0
-8 -54 0
19 20 -21 52 0
-7 -69 0
-8 -70 0
7 8 69 70 0
-7 -76 0
-8 -77 0
17 18 53 54 0
-7 -78 0
-8 -79 0
3 38 39 -62 0
-9 -38 0
-10 -39 0
11 12 62 63 0
-9 -46 0
-10 -47 0
21 22 76 77 0
38 39 65 66 0
17 18 40 -54 0
-9 -69 0
-10 -70 0
25 26 74 75 0
-9 -71 0
-10 -72 0
9 10 71 72 0
-9 -74 0
-10 -75 0
48 49 -50 73 0
-12 -27 0
40 -54 59 60 0
-11 -30 0
-12 -31 0
1 2 53 54 0
-11 -50 0
-12 -51 0
21 22 34 35 0
-11 -62 0
-12 -63 0
13 14 34 35 0
-13 -28 0
-14 -29 0
-13 -34 0
-14 -35 0
13 14 71 72 0
-19 21 22 52 0
-14 -41 0
-13 -71 0
-14 -72 0
40 53 54 -60 0
25 26 48 49 0
34 35 71 72 0
-16 -27 0
32 33 69 70 0
-15 -40 0
3 -5 -62 64 0
-15 -44 0
-16 -45 0
25 26 78 79 0
-15 -50 0
-16 -51 0
15 16 50 51 0
-15 -67 0
-16 -68 0
3 38 39 -64 0
-17 -32 0
-18 -33 0
-17 -36 0
-18 -37 0
3 -5 -38 64 0
-17 -40 0
19 20 42 43 0
-17 -53 0
-18 -54 0
21 22 57 58 0
-17 -67 0
-18 -68 0
-19 -42 0
-20 -43 0
19 20 50 51 0
-19 -50 0
-20 -51 0
-34 48 49 73 0
-19 32 33 61 0
-20 -52 0
6 -55 78 79 0
-19 -55 0
-20 -56 0
17 18 67 68 0
-19 -59 0
-20 -60 0
-18 40 53 54 0
-3 28 29 64 0
-20 -61 0
42 43 71 72 0
-19 -67 0
-20 -68 0
15 16 27 -62 0
-21 -34 0
-22 -35 0
23 24 74 75 0
-21 -36 0
-22 -37 0
-32 46 47 61 0
-22 -52 0
23 24 62 63 0
-21 -57 0
-22 -58 0
15 16 67 68 0
-21 -59 0
-22 -60 0
4 5 48 49 0
-21 -76 0
-22 -77 0
-13 41 71 72 0
1 2 42 43 0
41 -65 71 72 0
3 -38 62 63 0
6 -48 65 66 0
23 24 28 29 0
-23 -28 0
-24 -29 0
4 5 28 29 0
-23 -32 0
-24 -33 0
13 14 28 29 0
-23 -57 0
-24 -58 0
44 45 65 66 0
-23 -62 0
-24 -63 0
9 10 46 47 0
-23 -74 0
-24 -75 0
-25 -48 0
-26 -49 0
21 22 59 60 0
44 45 53 54 0
17 18 40 -60 0
6 -65 78 79 0
-25 -69 0
-26 -70 0
-25 -74 0
-26 -75 0
41 65 66 -71 0
-25 -78 0
-26 -79 0
42 43 78 79 0
34 35 -50 73 0
34 35 -48 73 0
-16 40 59 60 0
-27 -63 0
-13 41 65 66 0
6 55 56 -78 0
-28 -53 0
-29 -54 0
28 29 53 54 0
-28 -64 0
15 16 -18 40 0
46 47 59 60 0
-30 -55 0
-31 -56 0
23 24 32 33 0
-30 -57 0
-31 -58 0
19 20 -32 61 0
-30 -76 0
-31 -77 0
17 18 32 33 0
-30 -78 0
-31 -79 0
21 22 36 37 0
-32 -57 0
-33 -58 0
30 31 76 77 0
4 5 -29 64 0
-33 -61 0
17 18 36 37 0
-32 -69 0
-33 -70 0
1 2 36 37 0
-32 -78 0
-33 -79 0
-34 -71 0
-35 -72 0
6 -48 78 79 0
6 -48 55 56 0
-35 -73 0
-36 -57 0
-37 -58 0
48 49 74 75 0
-36 -69 0
-37 -70 0
32 33 57 58 0
-38 -65 0
-39 -66 0
32 33 78 79 0
-38 -78 0
-39 -79 0
-40 -53 0
-48 50 51 73 0
7 8 42 43 0
-40 -59 0
-34 50 51 73 0
44 45 74 75 0
13 14 41 -65 0
-21 52 67 68 0
-41 -66 0
50 51 57 58 0
-19 52 67 68 0
-41 -72 0
4 5 55 56 0
-42 -71 0
-43 -72 0
46 47 55 56 0
-42 -78 0
-43 -79 0
-44 -53 0
-45 -54 0
7 8 53 54 0
-44 -65 0
-45 -66 0
19 20 -46 61 0
-44 -74 0
-45 -75 0
-46 -55 0
-47 -56 0
-11 15 16 27 0
-46 -59 0
-47 -60 0
23 24 57 58 0
-3 4 5 64 0
-47 -61 0
6 65 66 -78 0
-49 -73 0
9 10 38 39 0
-48 -74 0
-49 -75 0
50 51 53 54 0
-50 -53 0
-51 -54 0
36 37 69 70 0
-50 -57 0
-51 -58 0
3 -29 -62 64 0
-50 -59 0
-51 -60 0
4 5 69 70 0
6 -55 65 66 0
-51 -73 0
50 51 59 60 0
-19 46 47 61 0
-52 -68 0
